
%FILE DATA:	Soccer Computational Problem for MiniZinc Models	%
%AUTHOR:	Jack Wall	%
%CONTACT:  	116397063@umail.ucc.ie			%
%LAST UPDATE:	03/03/2020, 12:07:43						%
%DESCRIPTION: 	66 games played with 44 games left				%


n=11; %number of teams

%Games to play
games=[|9,4|11,8|1,4|7,3|8,7|11,3|9,11|5,9|11,5|5,10|1,9|6,8|11,10|10,8|10,1|5,11|10,9|7,9|4,1|10,11|7,2|8,11|4,6|3,1|1,5|3,8|5,2|1,8|6,2|8,1|7,4|3,11|11,2|2,5|4,11|5,3|10,3|9,7|1,10|10,7|2,3|11,7|10,2|9,3|];

%Initial points
iPoints=[17,16,18,26,18,23,17,9,11,8,16];

%POSITION CONSTRAINTS
% [|teamID, operator, position|...]
% operators index:
%  1 for =  operator
%  2 for >  operator
%  3 for >= operator
%  4 for <  operator
%  5 for <= operator
positionConstraints=[|5,4,2|4,3,2|3,3,3|];